certificates/rado_a6_c-10_N145.cnf
c Rad2 upper bound instance: x1 + 6*x2 - x3 = -10, interval [1,145]
p cnf 145 2904
1 17 0
-1 -17 0
1 2 23 0
-1 -2 -23 0
1 3 29 0
-1 -3 -29 0
1 4 35 0
-1 -4 -35 0
1 5 41 0
-1 -5 -41 0
1 6 47 0
-1 -6 -47 0
1 7 53 0
-1 -7 -53 0
1 8 59 0
-1 -8 -59 0
1 9 65 0
-1 -9 -65 0
1 10 71 0
-1 -10 -71 0
1 11 77 0
-1 -11 -77 0
1 12 83 0
-1 -12 -83 0
1 13 89 0
-1 -13 -89 0
1 14 95 0
-1 -14 -95 0
1 15 101 0
-1 -15 -101 0
1 16 107 0
-1 -16 -107 0
1 17 113 0
-1 -17 -113 0
1 18 119 0
-1 -18 -119 0
1 19 125 0
-1 -19 -125 0
1 20 131 0
-1 -20 -131 0
1 21 137 0
-1 -21 -137 0
1 22 143 0
-1 -22 -143 0
1 2 18 0
-1 -2 -18 0
2 24 0
-2 -24 0
2 3 30 0
-2 -3 -30 0
2 4 36 0
-2 -4 -36 0
2 5 42 0
-2 -5 -42 0
2 6 48 0
-2 -6 -48 0
2 7 54 0
-2 -7 -54 0
2 8 60 0
-2 -8 -60 0
2 9 66 0
-2 -9 -66 0
2 10 72 0
-2 -10 -72 0
2 11 78 0
-2 -11 -78 0
2 12 84 0
-2 -12 -84 0
2 13 90 0
-2 -13 -90 0
2 14 96 0
-2 -14 -96 0
2 15 102 0
-2 -15 -102 0
2 16 108 0
-2 -16 -108 0
2 17 114 0
-2 -17 -114 0
2 18 120 0
-2 -18 -120 0
2 19 126 0
-2 -19 -126 0
2 20 132 0
-2 -20 -132 0
2 21 138 0
-2 -21 -138 0
2 22 144 0
-2 -22 -144 0
1 3 19 0
-1 -3 -19 0
2 3 25 0
-2 -3 -25 0
3 31 0
-3 -31 0
3 4 37 0
-3 -4 -37 0
3 5 43 0
-3 -5 -43 0
3 6 49 0
-3 -6 -49 0
3 7 55 0
-3 -7 -55 0
3 8 61 0
-3 -8 -61 0
3 9 67 0
-3 -9 -67 0
3 10 73 0
-3 -10 -73 0
3 11 79 0
-3 -11 -79 0
3 12 85 0
-3 -12 -85 0
3 13 91 0
-3 -13 -91 0
3 14 97 0
-3 -14 -97 0
3 15 103 0
-3 -15 -103 0
3 16 109 0
-3 -16 -109 0
3 17 115 0
-3 -17 -115 0
3 18 121 0
-3 -18 -121 0
3 19 127 0
-3 -19 -127 0
3 20 133 0
-3 -20 -133 0
3 21 139 0
-3 -21 -139 0
3 22 145 0
-3 -22 -145 0
1 4 20 0
-1 -4 -20 0
2 4 26 0
-2 -4 -26 0
3 4 32 0
-3 -4 -32 0
4 38 0
-4 -38 0
4 5 44 0
-4 -5 -44 0
4 6 50 0
-4 -6 -50 0
4 7 56 0
-4 -7 -56 0
4 8 62 0
-4 -8 -62 0
4 9 68 0
-4 -9 -68 0
4 10 74 0
-4 -10 -74 0
4 11 80 0
-4 -11 -80 0
4 12 86 0
-4 -12 -86 0
4 13 92 0
-4 -13 -92 0
4 14 98 0
-4 -14 -98 0
4 15 104 0
-4 -15 -104 0
4 16 110 0
-4 -16 -110 0
4 17 116 0
-4 -17 -116 0
4 18 122 0
-4 -18 -122 0
4 19 128 0
-4 -19 -128 0
4 20 134 0
-4 -20 -134 0
4 21 140 0
-4 -21 -140 0
1 5 21 0
-1 -5 -21 0
2 5 27 0
-2 -5 -27 0
3 5 33 0
-3 -5 -33 0
4 5 39 0
-4 -5 -39 0
5 45 0
-5 -45 0
5 6 51 0
-5 -6 -51 0
5 7 57 0
-5 -7 -57 0
5 8 63 0
-5 -8 -63 0
5 9 69 0
-5 -9 -69 0
5 10 75 0
-5 -10 -75 0
5 11 81 0
-5 -11 -81 0
5 12 87 0
-5 -12 -87 0
5 13 93 0
-5 -13 -93 0
5 14 99 0
-5 -14 -99 0
5 15 105 0
-5 -15 -105 0
5 16 111 0
-5 -16 -111 0
5 17 117 0
-5 -17 -117 0
5 18 123 0
-5 -18 -123 0
5 19 129 0
-5 -19 -129 0
5 20 135 0
-5 -20 -135 0
5 21 141 0
-5 -21 -141 0
1 6 22 0
-1 -6 -22 0
2 6 28 0
-2 -6 -28 0
3 6 34 0
-3 -6 -34 0
4 6 40 0
-4 -6 -40 0
5 6 46 0
-5 -6 -46 0
6 52 0
-6 -52 0
6 7 58 0
-6 -7 -58 0
6 8 64 0
-6 -8 -64 0
6 9 70 0
-6 -9 -70 0
6 10 76 0
-6 -10 -76 0
6 11 82 0
-6 -11 -82 0
6 12 88 0
-6 -12 -88 0
6 13 94 0
-6 -13 -94 0
6 14 100 0
-6 -14 -100 0
6 15 106 0
-6 -15 -106 0
6 16 112 0
-6 -16 -112 0
6 17 118 0
-6 -17 -118 0
6 18 124 0
-6 -18 -124 0
6 19 130 0
-6 -19 -130 0
6 20 136 0
-6 -20 -136 0
6 21 142 0
-6 -21 -142 0
1 7 23 0
-1 -7 -23 0
2 7 29 0
-2 -7 -29 0
3 7 35 0
-3 -7 -35 0
4 7 41 0
-4 -7 -41 0
5 7 47 0
-5 -7 -47 0
6 7 53 0
-6 -7 -53 0
7 59 0
-7 -59 0
7 8 65 0
-7 -8 -65 0
7 9 71 0
-7 -9 -71 0
7 10 77 0
-7 -10 -77 0
7 11 83 0
-7 -11 -83 0
7 12 89 0
-7 -12 -89 0
7 13 95 0
-7 -13 -95 0
7 14 101 0
-7 -14 -101 0
7 15 107 0
-7 -15 -107 0
7 16 113 0
-7 -16 -113 0
7 17 119 0
-7 -17 -119 0
7 18 125 0
-7 -18 -125 0
7 19 131 0
-7 -19 -131 0
7 20 137 0
-7 -20 -137 0
7 21 143 0
-7 -21 -143 0
1 8 24 0
-1 -8 -24 0
2 8 30 0
-2 -8 -30 0
3 8 36 0
-3 -8 -36 0
4 8 42 0
-4 -8 -42 0
5 8 48 0
-5 -8 -48 0
6 8 54 0
-6 -8 -54 0
7 8 60 0
-7 -8 -60 0
8 66 0
-8 -66 0
8 9 72 0
-8 -9 -72 0
8 10 78 0
-8 -10 -78 0
8 11 84 0
-8 -11 -84 0
8 12 90 0
-8 -12 -90 0
8 13 96 0
-8 -13 -96 0
8 14 102 0
-8 -14 -102 0
8 15 108 0
-8 -15 -108 0
8 16 114 0
-8 -16 -114 0
8 17 120 0
-8 -17 -120 0
8 18 126 0
-8 -18 -126 0
8 19 132 0
-8 -19 -132 0
8 20 138 0
-8 -20 -138 0
8 21 144 0
-8 -21 -144 0
1 9 25 0
-1 -9 -25 0
2 9 31 0
-2 -9 -31 0
3 9 37 0
-3 -9 -37 0
4 9 43 0
-4 -9 -43 0
5 9 49 0
-5 -9 -49 0
6 9 55 0
-6 -9 -55 0
7 9 61 0
-7 -9 -61 0
8 9 67 0
-8 -9 -67 0
9 73 0
-9 -73 0
9 10 79 0
-9 -10 -79 0
9 11 85 0
-9 -11 -85 0
9 12 91 0
-9 -12 -91 0
9 13 97 0
-9 -13 -97 0
9 14 103 0
-9 -14 -103 0
9 15 109 0
-9 -15 -109 0
9 16 115 0
-9 -16 -115 0
9 17 121 0
-9 -17 -121 0
9 18 127 0
-9 -18 -127 0
9 19 133 0
-9 -19 -133 0
9 20 139 0
-9 -20 -139 0
9 21 145 0
-9 -21 -145 0
1 10 26 0
-1 -10 -26 0
2 10 32 0
-2 -10 -32 0
3 10 38 0
-3 -10 -38 0
4 10 44 0
-4 -10 -44 0
5 10 50 0
-5 -10 -50 0
6 10 56 0
-6 -10 -56 0
7 10 62 0
-7 -10 -62 0
8 10 68 0
-8 -10 -68 0
9 10 74 0
-9 -10 -74 0
10 80 0
-10 -80 0
10 11 86 0
-10 -11 -86 0
10 12 92 0
-10 -12 -92 0
10 13 98 0
-10 -13 -98 0
10 14 104 0
-10 -14 -104 0
10 15 110 0
-10 -15 -110 0
10 16 116 0
-10 -16 -116 0
10 17 122 0
-10 -17 -122 0
10 18 128 0
-10 -18 -128 0
10 19 134 0
-10 -19 -134 0
10 20 140 0
-10 -20 -140 0
1 11 27 0
-1 -11 -27 0
2 11 33 0
-2 -11 -33 0
3 11 39 0
-3 -11 -39 0
4 11 45 0
-4 -11 -45 0
5 11 51 0
-5 -11 -51 0
6 11 57 0
-6 -11 -57 0
7 11 63 0
-7 -11 -63 0
8 11 69 0
-8 -11 -69 0
9 11 75 0
-9 -11 -75 0
10 11 81 0
-10 -11 -81 0
11 87 0
-11 -87 0
11 12 93 0
-11 -12 -93 0
11 13 99 0
-11 -13 -99 0
11 14 105 0
-11 -14 -105 0
11 15 111 0
-11 -15 -111 0
11 16 117 0
-11 -16 -117 0
11 17 123 0
-11 -17 -123 0
11 18 129 0
-11 -18 -129 0
11 19 135 0
-11 -19 -135 0
11 20 141 0
-11 -20 -141 0
1 12 28 0
-1 -12 -28 0
2 12 34 0
-2 -12 -34 0
3 12 40 0
-3 -12 -40 0
4 12 46 0
-4 -12 -46 0
5 12 52 0
-5 -12 -52 0
6 12 58 0
-6 -12 -58 0
7 12 64 0
-7 -12 -64 0
8 12 70 0
-8 -12 -70 0
9 12 76 0
-9 -12 -76 0
10 12 82 0
-10 -12 -82 0
11 12 88 0
-11 -12 -88 0
12 94 0
-12 -94 0
12 13 100 0
-12 -13 -100 0
12 14 106 0
-12 -14 -106 0
12 15 112 0
-12 -15 -112 0
12 16 118 0
-12 -16 -118 0
12 17 124 0
-12 -17 -124 0
12 18 130 0
-12 -18 -130 0
12 19 136 0
-12 -19 -136 0
12 20 142 0
-12 -20 -142 0
1 13 29 0
-1 -13 -29 0
2 13 35 0
-2 -13 -35 0
3 13 41 0
-3 -13 -41 0
4 13 47 0
-4 -13 -47 0
5 13 53 0
-5 -13 -53 0
6 13 59 0
-6 -13 -59 0
7 13 65 0
-7 -13 -65 0
8 13 71 0
-8 -13 -71 0
9 13 77 0
-9 -13 -77 0
10 13 83 0
-10 -13 -83 0
11 13 89 0
-11 -13 -89 0
12 13 95 0
-12 -13 -95 0
13 101 0
-13 -101 0
13 14 107 0
-13 -14 -107 0
13 15 113 0
-13 -15 -113 0
13 16 119 0
-13 -16 -119 0
13 17 125 0
-13 -17 -125 0
13 18 131 0
-13 -18 -131 0
13 19 137 0
-13 -19 -137 0
13 20 143 0
-13 -20 -143 0
1 14 30 0
-1 -14 -30 0
2 14 36 0
-2 -14 -36 0
3 14 42 0
-3 -14 -42 0
4 14 48 0
-4 -14 -48 0
5 14 54 0
-5 -14 -54 0
6 14 60 0
-6 -14 -60 0
7 14 66 0
-7 -14 -66 0
8 14 72 0
-8 -14 -72 0
9 14 78 0
-9 -14 -78 0
10 14 84 0
-10 -14 -84 0
11 14 90 0
-11 -14 -90 0
12 14 96 0
-12 -14 -96 0
13 14 102 0
-13 -14 -102 0
14 108 0
-14 -108 0
14 15 114 0
-14 -15 -114 0
14 16 120 0
-14 -16 -120 0
14 17 126 0
-14 -17 -126 0
14 18 132 0
-14 -18 -132 0
14 19 138 0
-14 -19 -138 0
14 20 144 0
-14 -20 -144 0
1 15 31 0
-1 -15 -31 0
2 15 37 0
-2 -15 -37 0
3 15 43 0
-3 -15 -43 0
4 15 49 0
-4 -15 -49 0
5 15 55 0
-5 -15 -55 0
6 15 61 0
-6 -15 -61 0
7 15 67 0
-7 -15 -67 0
8 15 73 0
-8 -15 -73 0
9 15 79 0
-9 -15 -79 0
10 15 85 0
-10 -15 -85 0
11 15 91 0
-11 -15 -91 0
12 15 97 0
-12 -15 -97 0
13 15 103 0
-13 -15 -103 0
14 15 109 0
-14 -15 -109 0
15 115 0
-15 -115 0
15 16 121 0
-15 -16 -121 0
15 17 127 0
-15 -17 -127 0
15 18 133 0
-15 -18 -133 0
15 19 139 0
-15 -19 -139 0
15 20 145 0
-15 -20 -145 0
1 16 32 0
-1 -16 -32 0
2 16 38 0
-2 -16 -38 0
3 16 44 0
-3 -16 -44 0
4 16 50 0
-4 -16 -50 0
5 16 56 0
-5 -16 -56 0
6 16 62 0
-6 -16 -62 0
7 16 68 0
-7 -16 -68 0
8 16 74 0
-8 -16 -74 0
9 16 80 0
-9 -16 -80 0
10 16 86 0
-10 -16 -86 0
11 16 92 0
-11 -16 -92 0
12 16 98 0
-12 -16 -98 0
13 16 104 0
-13 -16 -104 0
14 16 110 0
-14 -16 -110 0
15 16 116 0
-15 -16 -116 0
16 122 0
-16 -122 0
16 17 128 0
-16 -17 -128 0
16 18 134 0
-16 -18 -134 0
16 19 140 0
-16 -19 -140 0
1 17 33 0
-1 -17 -33 0
2 17 39 0
-2 -17 -39 0
3 17 45 0
-3 -17 -45 0
4 17 51 0
-4 -17 -51 0
5 17 57 0
-5 -17 -57 0
6 17 63 0
-6 -17 -63 0
7 17 69 0
-7 -17 -69 0
8 17 75 0
-8 -17 -75 0
9 17 81 0
-9 -17 -81 0
10 17 87 0
-10 -17 -87 0
11 17 93 0
-11 -17 -93 0
12 17 99 0
-12 -17 -99 0
13 17 105 0
-13 -17 -105 0
14 17 111 0
-14 -17 -111 0
15 17 117 0
-15 -17 -117 0
16 17 123 0
-16 -17 -123 0
17 129 0
-17 -129 0
17 18 135 0
-17 -18 -135 0
17 19 141 0
-17 -19 -141 0
1 18 34 0
-1 -18 -34 0
2 18 40 0
-2 -18 -40 0
3 18 46 0
-3 -18 -46 0
4 18 52 0
-4 -18 -52 0
5 18 58 0
-5 -18 -58 0
6 18 64 0
-6 -18 -64 0
7 18 70 0
-7 -18 -70 0
8 18 76 0
-8 -18 -76 0
9 18 82 0
-9 -18 -82 0
10 18 88 0
-10 -18 -88 0
11 18 94 0
-11 -18 -94 0
12 18 100 0
-12 -18 -100 0
13 18 106 0
-13 -18 -106 0
14 18 112 0
-14 -18 -112 0
15 18 118 0
-15 -18 -118 0
16 18 124 0
-16 -18 -124 0
17 18 130 0
-17 -18 -130 0
18 136 0
-18 -136 0
18 19 142 0
-18 -19 -142 0
1 19 35 0
-1 -19 -35 0
2 19 41 0
-2 -19 -41 0
3 19 47 0
-3 -19 -47 0
4 19 53 0
-4 -19 -53 0
5 19 59 0
-5 -19 -59 0
6 19 65 0
-6 -19 -65 0
7 19 71 0
-7 -19 -71 0
8 19 77 0
-8 -19 -77 0
9 19 83 0
-9 -19 -83 0
10 19 89 0
-10 -19 -89 0
11 19 95 0
-11 -19 -95 0
12 19 101 0
-12 -19 -101 0
13 19 107 0
-13 -19 -107 0
14 19 113 0
-14 -19 -113 0
15 19 119 0
-15 -19 -119 0
16 19 125 0
-16 -19 -125 0
17 19 131 0
-17 -19 -131 0
18 19 137 0
-18 -19 -137 0
19 143 0
-19 -143 0
1 20 36 0
-1 -20 -36 0
2 20 42 0
-2 -20 -42 0
3 20 48 0
-3 -20 -48 0
4 20 54 0
-4 -20 -54 0
5 20 60 0
-5 -20 -60 0
6 20 66 0
-6 -20 -66 0
7 20 72 0
-7 -20 -72 0
8 20 78 0
-8 -20 -78 0
9 20 84 0
-9 -20 -84 0
10 20 90 0
-10 -20 -90 0
11 20 96 0
-11 -20 -96 0
12 20 102 0
-12 -20 -102 0
13 20 108 0
-13 -20 -108 0
14 20 114 0
-14 -20 -114 0
15 20 120 0
-15 -20 -120 0
16 20 126 0
-16 -20 -126 0
17 20 132 0
-17 -20 -132 0
18 20 138 0
-18 -20 -138 0
19 20 144 0
-19 -20 -144 0
1 21 37 0
-1 -21 -37 0
2 21 43 0
-2 -21 -43 0
3 21 49 0
-3 -21 -49 0
4 21 55 0
-4 -21 -55 0
5 21 61 0
-5 -21 -61 0
6 21 67 0
-6 -21 -67 0
7 21 73 0
-7 -21 -73 0
8 21 79 0
-8 -21 -79 0
9 21 85 0
-9 -21 -85 0
10 21 91 0
-10 -21 -91 0
11 21 97 0
-11 -21 -97 0
12 21 103 0
-12 -21 -103 0
13 21 109 0
-13 -21 -109 0
14 21 115 0
-14 -21 -115 0
15 21 121 0
-15 -21 -121 0
16 21 127 0
-16 -21 -127 0
17 21 133 0
-17 -21 -133 0
18 21 139 0
-18 -21 -139 0
19 21 145 0
-19 -21 -145 0
1 22 38 0
-1 -22 -38 0
2 22 44 0
-2 -22 -44 0
3 22 50 0
-3 -22 -50 0
4 22 56 0
-4 -22 -56 0
5 22 62 0
-5 -22 -62 0
6 22 68 0
-6 -22 -68 0
7 22 74 0
-7 -22 -74 0
8 22 80 0
-8 -22 -80 0
9 22 86 0
-9 -22 -86 0
10 22 92 0
-10 -22 -92 0
11 22 98 0
-11 -22 -98 0
12 22 104 0
-12 -22 -104 0
13 22 110 0
-13 -22 -110 0
14 22 116 0
-14 -22 -116 0
15 22 122 0
-15 -22 -122 0
16 22 128 0
-16 -22 -128 0
17 22 134 0
-17 -22 -134 0
18 22 140 0
-18 -22 -140 0
1 23 39 0
-1 -23 -39 0
2 23 45 0
-2 -23 -45 0
3 23 51 0
-3 -23 -51 0
4 23 57 0
-4 -23 -57 0
5 23 63 0
-5 -23 -63 0
6 23 69 0
-6 -23 -69 0
7 23 75 0
-7 -23 -75 0
8 23 81 0
-8 -23 -81 0
9 23 87 0
-9 -23 -87 0
10 23 93 0
-10 -23 -93 0
11 23 99 0
-11 -23 -99 0
12 23 105 0
-12 -23 -105 0
13 23 111 0
-13 -23 -111 0
14 23 117 0
-14 -23 -117 0
15 23 123 0
-15 -23 -123 0
16 23 129 0
-16 -23 -129 0
17 23 135 0
-17 -23 -135 0
18 23 141 0
-18 -23 -141 0
1 24 40 0
-1 -24 -40 0
2 24 46 0
-2 -24 -46 0
3 24 52 0
-3 -24 -52 0
4 24 58 0
-4 -24 -58 0
5 24 64 0
-5 -24 -64 0
6 24 70 0
-6 -24 -70 0
7 24 76 0
-7 -24 -76 0
8 24 82 0
-8 -24 -82 0
9 24 88 0
-9 -24 -88 0
10 24 94 0
-10 -24 -94 0
11 24 100 0
-11 -24 -100 0
12 24 106 0
-12 -24 -106 0
13 24 112 0
-13 -24 -112 0
14 24 118 0
-14 -24 -118 0
15 24 124 0
-15 -24 -124 0
16 24 130 0
-16 -24 -130 0
17 24 136 0
-17 -24 -136 0
18 24 142 0
-18 -24 -142 0
1 25 41 0
-1 -25 -41 0
2 25 47 0
-2 -25 -47 0
3 25 53 0
-3 -25 -53 0
4 25 59 0
-4 -25 -59 0
5 25 65 0
-5 -25 -65 0
6 25 71 0
-6 -25 -71 0
7 25 77 0
-7 -25 -77 0
8 25 83 0
-8 -25 -83 0
9 25 89 0
-9 -25 -89 0
10 25 95 0
-10 -25 -95 0
11 25 101 0
-11 -25 -101 0
12 25 107 0
-12 -25 -107 0
13 25 113 0
-13 -25 -113 0
14 25 119 0
-14 -25 -119 0
15 25 125 0
-15 -25 -125 0
16 25 131 0
-16 -25 -131 0
17 25 137 0
-17 -25 -137 0
18 25 143 0
-18 -25 -143 0
1 26 42 0
-1 -26 -42 0
2 26 48 0
-2 -26 -48 0
3 26 54 0
-3 -26 -54 0
4 26 60 0
-4 -26 -60 0
5 26 66 0
-5 -26 -66 0
6 26 72 0
-6 -26 -72 0
7 26 78 0
-7 -26 -78 0
8 26 84 0
-8 -26 -84 0
9 26 90 0
-9 -26 -90 0
10 26 96 0
-10 -26 -96 0
11 26 102 0
-11 -26 -102 0
12 26 108 0
-12 -26 -108 0
13 26 114 0
-13 -26 -114 0
14 26 120 0
-14 -26 -120 0
15 26 126 0
-15 -26 -126 0
16 26 132 0
-16 -26 -132 0
17 26 138 0
-17 -26 -138 0
18 26 144 0
-18 -26 -144 0
1 27 43 0
-1 -27 -43 0
2 27 49 0
-2 -27 -49 0
3 27 55 0
-3 -27 -55 0
4 27 61 0
-4 -27 -61 0
5 27 67 0
-5 -27 -67 0
6 27 73 0
-6 -27 -73 0
7 27 79 0
-7 -27 -79 0
8 27 85 0
-8 -27 -85 0
9 27 91 0
-9 -27 -91 0
10 27 97 0
-10 -27 -97 0
11 27 103 0
-11 -27 -103 0
12 27 109 0
-12 -27 -109 0
13 27 115 0
-13 -27 -115 0
14 27 121 0
-14 -27 -121 0
15 27 127 0
-15 -27 -127 0
16 27 133 0
-16 -27 -133 0
17 27 139 0
-17 -27 -139 0
18 27 145 0
-18 -27 -145 0
1 28 44 0
-1 -28 -44 0
2 28 50 0
-2 -28 -50 0
3 28 56 0
-3 -28 -56 0
4 28 62 0
-4 -28 -62 0
5 28 68 0
-5 -28 -68 0
6 28 74 0
-6 -28 -74 0
7 28 80 0
-7 -28 -80 0
8 28 86 0
-8 -28 -86 0
9 28 92 0
-9 -28 -92 0
10 28 98 0
-10 -28 -98 0
11 28 104 0
-11 -28 -104 0
12 28 110 0
-12 -28 -110 0
13 28 116 0
-13 -28 -116 0
14 28 122 0
-14 -28 -122 0
15 28 128 0
-15 -28 -128 0
16 28 134 0
-16 -28 -134 0
17 28 140 0
-17 -28 -140 0
1 29 45 0
-1 -29 -45 0
2 29 51 0
-2 -29 -51 0
3 29 57 0
-3 -29 -57 0
4 29 63 0
-4 -29 -63 0
5 29 69 0
-5 -29 -69 0
6 29 75 0
-6 -29 -75 0
7 29 81 0
-7 -29 -81 0
8 29 87 0
-8 -29 -87 0
9 29 93 0
-9 -29 -93 0
10 29 99 0
-10 -29 -99 0
11 29 105 0
-11 -29 -105 0
12 29 111 0
-12 -29 -111 0
13 29 117 0
-13 -29 -117 0
14 29 123 0
-14 -29 -123 0
15 29 129 0
-15 -29 -129 0
16 29 135 0
-16 -29 -135 0
17 29 141 0
-17 -29 -141 0
1 30 46 0
-1 -30 -46 0
2 30 52 0
-2 -30 -52 0
3 30 58 0
-3 -30 -58 0
4 30 64 0
-4 -30 -64 0
5 30 70 0
-5 -30 -70 0
6 30 76 0
-6 -30 -76 0
7 30 82 0
-7 -30 -82 0
8 30 88 0
-8 -30 -88 0
9 30 94 0
-9 -30 -94 0
10 30 100 0
-10 -30 -100 0
11 30 106 0
-11 -30 -106 0
12 30 112 0
-12 -30 -112 0
13 30 118 0
-13 -30 -118 0
14 30 124 0
-14 -30 -124 0
15 30 130 0
-15 -30 -130 0
16 30 136 0
-16 -30 -136 0
17 30 142 0
-17 -30 -142 0
1 31 47 0
-1 -31 -47 0
2 31 53 0
-2 -31 -53 0
3 31 59 0
-3 -31 -59 0
4 31 65 0
-4 -31 -65 0
5 31 71 0
-5 -31 -71 0
6 31 77 0
-6 -31 -77 0
7 31 83 0
-7 -31 -83 0
8 31 89 0
-8 -31 -89 0
9 31 95 0
-9 -31 -95 0
10 31 101 0
-10 -31 -101 0
11 31 107 0
-11 -31 -107 0
12 31 113 0
-12 -31 -113 0
13 31 119 0
-13 -31 -119 0
14 31 125 0
-14 -31 -125 0
15 31 131 0
-15 -31 -131 0
16 31 137 0
-16 -31 -137 0
17 31 143 0
-17 -31 -143 0
1 32 48 0
-1 -32 -48 0
2 32 54 0
-2 -32 -54 0
3 32 60 0
-3 -32 -60 0
4 32 66 0
-4 -32 -66 0
5 32 72 0
-5 -32 -72 0
6 32 78 0
-6 -32 -78 0
7 32 84 0
-7 -32 -84 0
8 32 90 0
-8 -32 -90 0
9 32 96 0
-9 -32 -96 0
10 32 102 0
-10 -32 -102 0
11 32 108 0
-11 -32 -108 0
12 32 114 0
-12 -32 -114 0
13 32 120 0
-13 -32 -120 0
14 32 126 0
-14 -32 -126 0
15 32 132 0
-15 -32 -132 0
16 32 138 0
-16 -32 -138 0
17 32 144 0
-17 -32 -144 0
1 33 49 0
-1 -33 -49 0
2 33 55 0
-2 -33 -55 0
3 33 61 0
-3 -33 -61 0
4 33 67 0
-4 -33 -67 0
5 33 73 0
-5 -33 -73 0
6 33 79 0
-6 -33 -79 0
7 33 85 0
-7 -33 -85 0
8 33 91 0
-8 -33 -91 0
9 33 97 0
-9 -33 -97 0
10 33 103 0
-10 -33 -103 0
11 33 109 0
-11 -33 -109 0
12 33 115 0
-12 -33 -115 0
13 33 121 0
-13 -33 -121 0
14 33 127 0
-14 -33 -127 0
15 33 133 0
-15 -33 -133 0
16 33 139 0
-16 -33 -139 0
17 33 145 0
-17 -33 -145 0
1 34 50 0
-1 -34 -50 0
2 34 56 0
-2 -34 -56 0
3 34 62 0
-3 -34 -62 0
4 34 68 0
-4 -34 -68 0
5 34 74 0
-5 -34 -74 0
6 34 80 0
-6 -34 -80 0
7 34 86 0
-7 -34 -86 0
8 34 92 0
-8 -34 -92 0
9 34 98 0
-9 -34 -98 0
10 34 104 0
-10 -34 -104 0
11 34 110 0
-11 -34 -110 0
12 34 116 0
-12 -34 -116 0
13 34 122 0
-13 -34 -122 0
14 34 128 0
-14 -34 -128 0
15 34 134 0
-15 -34 -134 0
16 34 140 0
-16 -34 -140 0
1 35 51 0
-1 -35 -51 0
2 35 57 0
-2 -35 -57 0
3 35 63 0
-3 -35 -63 0
4 35 69 0
-4 -35 -69 0
5 35 75 0
-5 -35 -75 0
6 35 81 0
-6 -35 -81 0
7 35 87 0
-7 -35 -87 0
8 35 93 0
-8 -35 -93 0
9 35 99 0
-9 -35 -99 0
10 35 105 0
-10 -35 -105 0
11 35 111 0
-11 -35 -111 0
12 35 117 0
-12 -35 -117 0
13 35 123 0
-13 -35 -123 0
14 35 129 0
-14 -35 -129 0
15 35 135 0
-15 -35 -135 0
16 35 141 0
-16 -35 -141 0
1 36 52 0
-1 -36 -52 0
2 36 58 0
-2 -36 -58 0
3 36 64 0
-3 -36 -64 0
4 36 70 0
-4 -36 -70 0
5 36 76 0
-5 -36 -76 0
6 36 82 0
-6 -36 -82 0
7 36 88 0
-7 -36 -88 0
8 36 94 0
-8 -36 -94 0
9 36 100 0
-9 -36 -100 0
10 36 106 0
-10 -36 -106 0
11 36 112 0
-11 -36 -112 0
12 36 118 0
-12 -36 -118 0
13 36 124 0
-13 -36 -124 0
14 36 130 0
-14 -36 -130 0
15 36 136 0
-15 -36 -136 0
16 36 142 0
-16 -36 -142 0
1 37 53 0
-1 -37 -53 0
2 37 59 0
-2 -37 -59 0
3 37 65 0
-3 -37 -65 0
4 37 71 0
-4 -37 -71 0
5 37 77 0
-5 -37 -77 0
6 37 83 0
-6 -37 -83 0
7 37 89 0
-7 -37 -89 0
8 37 95 0
-8 -37 -95 0
9 37 101 0
-9 -37 -101 0
10 37 107 0
-10 -37 -107 0
11 37 113 0
-11 -37 -113 0
12 37 119 0
-12 -37 -119 0
13 37 125 0
-13 -37 -125 0
14 37 131 0
-14 -37 -131 0
15 37 137 0
-15 -37 -137 0
16 37 143 0
-16 -37 -143 0
1 38 54 0
-1 -38 -54 0
2 38 60 0
-2 -38 -60 0
3 38 66 0
-3 -38 -66 0
4 38 72 0
-4 -38 -72 0
5 38 78 0
-5 -38 -78 0
6 38 84 0
-6 -38 -84 0
7 38 90 0
-7 -38 -90 0
8 38 96 0
-8 -38 -96 0
9 38 102 0
-9 -38 -102 0
10 38 108 0
-10 -38 -108 0
11 38 114 0
-11 -38 -114 0
12 38 120 0
-12 -38 -120 0
13 38 126 0
-13 -38 -126 0
14 38 132 0
-14 -38 -132 0
15 38 138 0
-15 -38 -138 0
16 38 144 0
-16 -38 -144 0
1 39 55 0
-1 -39 -55 0
2 39 61 0
-2 -39 -61 0
3 39 67 0
-3 -39 -67 0
4 39 73 0
-4 -39 -73 0
5 39 79 0
-5 -39 -79 0
6 39 85 0
-6 -39 -85 0
7 39 91 0
-7 -39 -91 0
8 39 97 0
-8 -39 -97 0
9 39 103 0
-9 -39 -103 0
10 39 109 0
-10 -39 -109 0
11 39 115 0
-11 -39 -115 0
12 39 121 0
-12 -39 -121 0
13 39 127 0
-13 -39 -127 0
14 39 133 0
-14 -39 -133 0
15 39 139 0
-15 -39 -139 0
16 39 145 0
-16 -39 -145 0
1 40 56 0
-1 -40 -56 0
2 40 62 0
-2 -40 -62 0
3 40 68 0
-3 -40 -68 0
4 40 74 0
-4 -40 -74 0
5 40 80 0
-5 -40 -80 0
6 40 86 0
-6 -40 -86 0
7 40 92 0
-7 -40 -92 0
8 40 98 0
-8 -40 -98 0
9 40 104 0
-9 -40 -104 0
10 40 110 0
-10 -40 -110 0
11 40 116 0
-11 -40 -116 0
12 40 122 0
-12 -40 -122 0
13 40 128 0
-13 -40 -128 0
14 40 134 0
-14 -40 -134 0
15 40 140 0
-15 -40 -140 0
1 41 57 0
-1 -41 -57 0
2 41 63 0
-2 -41 -63 0
3 41 69 0
-3 -41 -69 0
4 41 75 0
-4 -41 -75 0
5 41 81 0
-5 -41 -81 0
6 41 87 0
-6 -41 -87 0
7 41 93 0
-7 -41 -93 0
8 41 99 0
-8 -41 -99 0
9 41 105 0
-9 -41 -105 0
10 41 111 0
-10 -41 -111 0
11 41 117 0
-11 -41 -117 0
12 41 123 0
-12 -41 -123 0
13 41 129 0
-13 -41 -129 0
14 41 135 0
-14 -41 -135 0
15 41 141 0
-15 -41 -141 0
1 42 58 0
-1 -42 -58 0
2 42 64 0
-2 -42 -64 0
3 42 70 0
-3 -42 -70 0
4 42 76 0
-4 -42 -76 0
5 42 82 0
-5 -42 -82 0
6 42 88 0
-6 -42 -88 0
7 42 94 0
-7 -42 -94 0
8 42 100 0
-8 -42 -100 0
9 42 106 0
-9 -42 -106 0
10 42 112 0
-10 -42 -112 0
11 42 118 0
-11 -42 -118 0
12 42 124 0
-12 -42 -124 0
13 42 130 0
-13 -42 -130 0
14 42 136 0
-14 -42 -136 0
15 42 142 0
-15 -42 -142 0
1 43 59 0
-1 -43 -59 0
2 43 65 0
-2 -43 -65 0
3 43 71 0
-3 -43 -71 0
4 43 77 0
-4 -43 -77 0
5 43 83 0
-5 -43 -83 0
6 43 89 0
-6 -43 -89 0
7 43 95 0
-7 -43 -95 0
8 43 101 0
-8 -43 -101 0
9 43 107 0
-9 -43 -107 0
10 43 113 0
-10 -43 -113 0
11 43 119 0
-11 -43 -119 0
12 43 125 0
-12 -43 -125 0
13 43 131 0
-13 -43 -131 0
14 43 137 0
-14 -43 -137 0
15 43 143 0
-15 -43 -143 0
1 44 60 0
-1 -44 -60 0
2 44 66 0
-2 -44 -66 0
3 44 72 0
-3 -44 -72 0
4 44 78 0
-4 -44 -78 0
5 44 84 0
-5 -44 -84 0
6 44 90 0
-6 -44 -90 0
7 44 96 0
-7 -44 -96 0
8 44 102 0
-8 -44 -102 0
9 44 108 0
-9 -44 -108 0
10 44 114 0
-10 -44 -114 0
11 44 120 0
-11 -44 -120 0
12 44 126 0
-12 -44 -126 0
13 44 132 0
-13 -44 -132 0
14 44 138 0
-14 -44 -138 0
15 44 144 0
-15 -44 -144 0
1 45 61 0
-1 -45 -61 0
2 45 67 0
-2 -45 -67 0
3 45 73 0
-3 -45 -73 0
4 45 79 0
-4 -45 -79 0
5 45 85 0
-5 -45 -85 0
6 45 91 0
-6 -45 -91 0
7 45 97 0
-7 -45 -97 0
8 45 103 0
-8 -45 -103 0
9 45 109 0
-9 -45 -109 0
10 45 115 0
-10 -45 -115 0
11 45 121 0
-11 -45 -121 0
12 45 127 0
-12 -45 -127 0
13 45 133 0
-13 -45 -133 0
14 45 139 0
-14 -45 -139 0
15 45 145 0
-15 -45 -145 0
1 46 62 0
-1 -46 -62 0
2 46 68 0
-2 -46 -68 0
3 46 74 0
-3 -46 -74 0
4 46 80 0
-4 -46 -80 0
5 46 86 0
-5 -46 -86 0
6 46 92 0
-6 -46 -92 0
7 46 98 0
-7 -46 -98 0
8 46 104 0
-8 -46 -104 0
9 46 110 0
-9 -46 -110 0
10 46 116 0
-10 -46 -116 0
11 46 122 0
-11 -46 -122 0
12 46 128 0
-12 -46 -128 0
13 46 134 0
-13 -46 -134 0
14 46 140 0
-14 -46 -140 0
1 47 63 0
-1 -47 -63 0
2 47 69 0
-2 -47 -69 0
3 47 75 0
-3 -47 -75 0
4 47 81 0
-4 -47 -81 0
5 47 87 0
-5 -47 -87 0
6 47 93 0
-6 -47 -93 0
7 47 99 0
-7 -47 -99 0
8 47 105 0
-8 -47 -105 0
9 47 111 0
-9 -47 -111 0
10 47 117 0
-10 -47 -117 0
11 47 123 0
-11 -47 -123 0
12 47 129 0
-12 -47 -129 0
13 47 135 0
-13 -47 -135 0
14 47 141 0
-14 -47 -141 0
1 48 64 0
-1 -48 -64 0
2 48 70 0
-2 -48 -70 0
3 48 76 0
-3 -48 -76 0
4 48 82 0
-4 -48 -82 0
5 48 88 0
-5 -48 -88 0
6 48 94 0
-6 -48 -94 0
7 48 100 0
-7 -48 -100 0
8 48 106 0
-8 -48 -106 0
9 48 112 0
-9 -48 -112 0
10 48 118 0
-10 -48 -118 0
11 48 124 0
-11 -48 -124 0
12 48 130 0
-12 -48 -130 0
13 48 136 0
-13 -48 -136 0
14 48 142 0
-14 -48 -142 0
1 49 65 0
-1 -49 -65 0
2 49 71 0
-2 -49 -71 0
3 49 77 0
-3 -49 -77 0
4 49 83 0
-4 -49 -83 0
5 49 89 0
-5 -49 -89 0
6 49 95 0
-6 -49 -95 0
7 49 101 0
-7 -49 -101 0
8 49 107 0
-8 -49 -107 0
9 49 113 0
-9 -49 -113 0
10 49 119 0
-10 -49 -119 0
11 49 125 0
-11 -49 -125 0
12 49 131 0
-12 -49 -131 0
13 49 137 0
-13 -49 -137 0
14 49 143 0
-14 -49 -143 0
1 50 66 0
-1 -50 -66 0
2 50 72 0
-2 -50 -72 0
3 50 78 0
-3 -50 -78 0
4 50 84 0
-4 -50 -84 0
5 50 90 0
-5 -50 -90 0
6 50 96 0
-6 -50 -96 0
7 50 102 0
-7 -50 -102 0
8 50 108 0
-8 -50 -108 0
9 50 114 0
-9 -50 -114 0
10 50 120 0
-10 -50 -120 0
11 50 126 0
-11 -50 -126 0
12 50 132 0
-12 -50 -132 0
13 50 138 0
-13 -50 -138 0
14 50 144 0
-14 -50 -144 0
1 51 67 0
-1 -51 -67 0
2 51 73 0
-2 -51 -73 0
3 51 79 0
-3 -51 -79 0
4 51 85 0
-4 -51 -85 0
5 51 91 0
-5 -51 -91 0
6 51 97 0
-6 -51 -97 0
7 51 103 0
-7 -51 -103 0
8 51 109 0
-8 -51 -109 0
9 51 115 0
-9 -51 -115 0
10 51 121 0
-10 -51 -121 0
11 51 127 0
-11 -51 -127 0
12 51 133 0
-12 -51 -133 0
13 51 139 0
-13 -51 -139 0
14 51 145 0
-14 -51 -145 0
1 52 68 0
-1 -52 -68 0
2 52 74 0
-2 -52 -74 0
3 52 80 0
-3 -52 -80 0
4 52 86 0
-4 -52 -86 0
5 52 92 0
-5 -52 -92 0
6 52 98 0
-6 -52 -98 0
7 52 104 0
-7 -52 -104 0
8 52 110 0
-8 -52 -110 0
9 52 116 0
-9 -52 -116 0
10 52 122 0
-10 -52 -122 0
11 52 128 0
-11 -52 -128 0
12 52 134 0
-12 -52 -134 0
13 52 140 0
-13 -52 -140 0
1 53 69 0
-1 -53 -69 0
2 53 75 0
-2 -53 -75 0
3 53 81 0
-3 -53 -81 0
4 53 87 0
-4 -53 -87 0
5 53 93 0
-5 -53 -93 0
6 53 99 0
-6 -53 -99 0
7 53 105 0
-7 -53 -105 0
8 53 111 0
-8 -53 -111 0
9 53 117 0
-9 -53 -117 0
10 53 123 0
-10 -53 -123 0
11 53 129 0
-11 -53 -129 0
12 53 135 0
-12 -53 -135 0
13 53 141 0
-13 -53 -141 0
1 54 70 0
-1 -54 -70 0
2 54 76 0
-2 -54 -76 0
3 54 82 0
-3 -54 -82 0
4 54 88 0
-4 -54 -88 0
5 54 94 0
-5 -54 -94 0
6 54 100 0
-6 -54 -100 0
7 54 106 0
-7 -54 -106 0
8 54 112 0
-8 -54 -112 0
9 54 118 0
-9 -54 -118 0
10 54 124 0
-10 -54 -124 0
11 54 130 0
-11 -54 -130 0
12 54 136 0
-12 -54 -136 0
13 54 142 0
-13 -54 -142 0
1 55 71 0
-1 -55 -71 0
2 55 77 0
-2 -55 -77 0
3 55 83 0
-3 -55 -83 0
4 55 89 0
-4 -55 -89 0
5 55 95 0
-5 -55 -95 0
6 55 101 0
-6 -55 -101 0
7 55 107 0
-7 -55 -107 0
8 55 113 0
-8 -55 -113 0
9 55 119 0
-9 -55 -119 0
10 55 125 0
-10 -55 -125 0
11 55 131 0
-11 -55 -131 0
12 55 137 0
-12 -55 -137 0
13 55 143 0
-13 -55 -143 0
1 56 72 0
-1 -56 -72 0
2 56 78 0
-2 -56 -78 0
3 56 84 0
-3 -56 -84 0
4 56 90 0
-4 -56 -90 0
5 56 96 0
-5 -56 -96 0
6 56 102 0
-6 -56 -102 0
7 56 108 0
-7 -56 -108 0
8 56 114 0
-8 -56 -114 0
9 56 120 0
-9 -56 -120 0
10 56 126 0
-10 -56 -126 0
11 56 132 0
-11 -56 -132 0
12 56 138 0
-12 -56 -138 0
13 56 144 0
-13 -56 -144 0
1 57 73 0
-1 -57 -73 0
2 57 79 0
-2 -57 -79 0
3 57 85 0
-3 -57 -85 0
4 57 91 0
-4 -57 -91 0
5 57 97 0
-5 -57 -97 0
6 57 103 0
-6 -57 -103 0
7 57 109 0
-7 -57 -109 0
8 57 115 0
-8 -57 -115 0
9 57 121 0
-9 -57 -121 0
10 57 127 0
-10 -57 -127 0
11 57 133 0
-11 -57 -133 0
12 57 139 0
-12 -57 -139 0
13 57 145 0
-13 -57 -145 0
1 58 74 0
-1 -58 -74 0
2 58 80 0
-2 -58 -80 0
3 58 86 0
-3 -58 -86 0
4 58 92 0
-4 -58 -92 0
5 58 98 0
-5 -58 -98 0
6 58 104 0
-6 -58 -104 0
7 58 110 0
-7 -58 -110 0
8 58 116 0
-8 -58 -116 0
9 58 122 0
-9 -58 -122 0
10 58 128 0
-10 -58 -128 0
11 58 134 0
-11 -58 -134 0
12 58 140 0
-12 -58 -140 0
1 59 75 0
-1 -59 -75 0
2 59 81 0
-2 -59 -81 0
3 59 87 0
-3 -59 -87 0
4 59 93 0
-4 -59 -93 0
5 59 99 0
-5 -59 -99 0
6 59 105 0
-6 -59 -105 0
7 59 111 0
-7 -59 -111 0
8 59 117 0
-8 -59 -117 0
9 59 123 0
-9 -59 -123 0
10 59 129 0
-10 -59 -129 0
11 59 135 0
-11 -59 -135 0
12 59 141 0
-12 -59 -141 0
1 60 76 0
-1 -60 -76 0
2 60 82 0
-2 -60 -82 0
3 60 88 0
-3 -60 -88 0
4 60 94 0
-4 -60 -94 0
5 60 100 0
-5 -60 -100 0
6 60 106 0
-6 -60 -106 0
7 60 112 0
-7 -60 -112 0
8 60 118 0
-8 -60 -118 0
9 60 124 0
-9 -60 -124 0
10 60 130 0
-10 -60 -130 0
11 60 136 0
-11 -60 -136 0
12 60 142 0
-12 -60 -142 0
1 61 77 0
-1 -61 -77 0
2 61 83 0
-2 -61 -83 0
3 61 89 0
-3 -61 -89 0
4 61 95 0
-4 -61 -95 0
5 61 101 0
-5 -61 -101 0
6 61 107 0
-6 -61 -107 0
7 61 113 0
-7 -61 -113 0
8 61 119 0
-8 -61 -119 0
9 61 125 0
-9 -61 -125 0
10 61 131 0
-10 -61 -131 0
11 61 137 0
-11 -61 -137 0
12 61 143 0
-12 -61 -143 0
1 62 78 0
-1 -62 -78 0
2 62 84 0
-2 -62 -84 0
3 62 90 0
-3 -62 -90 0
4 62 96 0
-4 -62 -96 0
5 62 102 0
-5 -62 -102 0
6 62 108 0
-6 -62 -108 0
7 62 114 0
-7 -62 -114 0
8 62 120 0
-8 -62 -120 0
9 62 126 0
-9 -62 -126 0
10 62 132 0
-10 -62 -132 0
11 62 138 0
-11 -62 -138 0
12 62 144 0
-12 -62 -144 0
1 63 79 0
-1 -63 -79 0
2 63 85 0
-2 -63 -85 0
3 63 91 0
-3 -63 -91 0
4 63 97 0
-4 -63 -97 0
5 63 103 0
-5 -63 -103 0
6 63 109 0
-6 -63 -109 0
7 63 115 0
-7 -63 -115 0
8 63 121 0
-8 -63 -121 0
9 63 127 0
-9 -63 -127 0
10 63 133 0
-10 -63 -133 0
11 63 139 0
-11 -63 -139 0
12 63 145 0
-12 -63 -145 0
1 64 80 0
-1 -64 -80 0
2 64 86 0
-2 -64 -86 0
3 64 92 0
-3 -64 -92 0
4 64 98 0
-4 -64 -98 0
5 64 104 0
-5 -64 -104 0
6 64 110 0
-6 -64 -110 0
7 64 116 0
-7 -64 -116 0
8 64 122 0
-8 -64 -122 0
9 64 128 0
-9 -64 -128 0
10 64 134 0
-10 -64 -134 0
11 64 140 0
-11 -64 -140 0
1 65 81 0
-1 -65 -81 0
2 65 87 0
-2 -65 -87 0
3 65 93 0
-3 -65 -93 0
4 65 99 0
-4 -65 -99 0
5 65 105 0
-5 -65 -105 0
6 65 111 0
-6 -65 -111 0
7 65 117 0
-7 -65 -117 0
8 65 123 0
-8 -65 -123 0
9 65 129 0
-9 -65 -129 0
10 65 135 0
-10 -65 -135 0
11 65 141 0
-11 -65 -141 0
1 66 82 0
-1 -66 -82 0
2 66 88 0
-2 -66 -88 0
3 66 94 0
-3 -66 -94 0
4 66 100 0
-4 -66 -100 0
5 66 106 0
-5 -66 -106 0
6 66 112 0
-6 -66 -112 0
7 66 118 0
-7 -66 -118 0
8 66 124 0
-8 -66 -124 0
9 66 130 0
-9 -66 -130 0
10 66 136 0
-10 -66 -136 0
11 66 142 0
-11 -66 -142 0
1 67 83 0
-1 -67 -83 0
2 67 89 0
-2 -67 -89 0
3 67 95 0
-3 -67 -95 0
4 67 101 0
-4 -67 -101 0
5 67 107 0
-5 -67 -107 0
6 67 113 0
-6 -67 -113 0
7 67 119 0
-7 -67 -119 0
8 67 125 0
-8 -67 -125 0
9 67 131 0
-9 -67 -131 0
10 67 137 0
-10 -67 -137 0
11 67 143 0
-11 -67 -143 0
1 68 84 0
-1 -68 -84 0
2 68 90 0
-2 -68 -90 0
3 68 96 0
-3 -68 -96 0
4 68 102 0
-4 -68 -102 0
5 68 108 0
-5 -68 -108 0
6 68 114 0
-6 -68 -114 0
7 68 120 0
-7 -68 -120 0
8 68 126 0
-8 -68 -126 0
9 68 132 0
-9 -68 -132 0
10 68 138 0
-10 -68 -138 0
11 68 144 0
-11 -68 -144 0
1 69 85 0
-1 -69 -85 0
2 69 91 0
-2 -69 -91 0
3 69 97 0
-3 -69 -97 0
4 69 103 0
-4 -69 -103 0
5 69 109 0
-5 -69 -109 0
6 69 115 0
-6 -69 -115 0
7 69 121 0
-7 -69 -121 0
8 69 127 0
-8 -69 -127 0
9 69 133 0
-9 -69 -133 0
10 69 139 0
-10 -69 -139 0
11 69 145 0
-11 -69 -145 0
1 70 86 0
-1 -70 -86 0
2 70 92 0
-2 -70 -92 0
3 70 98 0
-3 -70 -98 0
4 70 104 0
-4 -70 -104 0
5 70 110 0
-5 -70 -110 0
6 70 116 0
-6 -70 -116 0
7 70 122 0
-7 -70 -122 0
8 70 128 0
-8 -70 -128 0
9 70 134 0
-9 -70 -134 0
10 70 140 0
-10 -70 -140 0
1 71 87 0
-1 -71 -87 0
2 71 93 0
-2 -71 -93 0
3 71 99 0
-3 -71 -99 0
4 71 105 0
-4 -71 -105 0
5 71 111 0
-5 -71 -111 0
6 71 117 0
-6 -71 -117 0
7 71 123 0
-7 -71 -123 0
8 71 129 0
-8 -71 -129 0
9 71 135 0
-9 -71 -135 0
10 71 141 0
-10 -71 -141 0
1 72 88 0
-1 -72 -88 0
2 72 94 0
-2 -72 -94 0
3 72 100 0
-3 -72 -100 0
4 72 106 0
-4 -72 -106 0
5 72 112 0
-5 -72 -112 0
6 72 118 0
-6 -72 -118 0
7 72 124 0
-7 -72 -124 0
8 72 130 0
-8 -72 -130 0
9 72 136 0
-9 -72 -136 0
10 72 142 0
-10 -72 -142 0
1 73 89 0
-1 -73 -89 0
2 73 95 0
-2 -73 -95 0
3 73 101 0
-3 -73 -101 0
4 73 107 0
-4 -73 -107 0
5 73 113 0
-5 -73 -113 0
6 73 119 0
-6 -73 -119 0
7 73 125 0
-7 -73 -125 0
8 73 131 0
-8 -73 -131 0
9 73 137 0
-9 -73 -137 0
10 73 143 0
-10 -73 -143 0
1 74 90 0
-1 -74 -90 0
2 74 96 0
-2 -74 -96 0
3 74 102 0
-3 -74 -102 0
4 74 108 0
-4 -74 -108 0
5 74 114 0
-5 -74 -114 0
6 74 120 0
-6 -74 -120 0
7 74 126 0
-7 -74 -126 0
8 74 132 0
-8 -74 -132 0
9 74 138 0
-9 -74 -138 0
10 74 144 0
-10 -74 -144 0
1 75 91 0
-1 -75 -91 0
2 75 97 0
-2 -75 -97 0
3 75 103 0
-3 -75 -103 0
4 75 109 0
-4 -75 -109 0
5 75 115 0
-5 -75 -115 0
6 75 121 0
-6 -75 -121 0
7 75 127 0
-7 -75 -127 0
8 75 133 0
-8 -75 -133 0
9 75 139 0
-9 -75 -139 0
10 75 145 0
-10 -75 -145 0
1 76 92 0
-1 -76 -92 0
2 76 98 0
-2 -76 -98 0
3 76 104 0
-3 -76 -104 0
4 76 110 0
-4 -76 -110 0
5 76 116 0
-5 -76 -116 0
6 76 122 0
-6 -76 -122 0
7 76 128 0
-7 -76 -128 0
8 76 134 0
-8 -76 -134 0
9 76 140 0
-9 -76 -140 0
1 77 93 0
-1 -77 -93 0
2 77 99 0
-2 -77 -99 0
3 77 105 0
-3 -77 -105 0
4 77 111 0
-4 -77 -111 0
5 77 117 0
-5 -77 -117 0
6 77 123 0
-6 -77 -123 0
7 77 129 0
-7 -77 -129 0
8 77 135 0
-8 -77 -135 0
9 77 141 0
-9 -77 -141 0
1 78 94 0
-1 -78 -94 0
2 78 100 0
-2 -78 -100 0
3 78 106 0
-3 -78 -106 0
4 78 112 0
-4 -78 -112 0
5 78 118 0
-5 -78 -118 0
6 78 124 0
-6 -78 -124 0
7 78 130 0
-7 -78 -130 0
8 78 136 0
-8 -78 -136 0
9 78 142 0
-9 -78 -142 0
1 79 95 0
-1 -79 -95 0
2 79 101 0
-2 -79 -101 0
3 79 107 0
-3 -79 -107 0
4 79 113 0
-4 -79 -113 0
5 79 119 0
-5 -79 -119 0
6 79 125 0
-6 -79 -125 0
7 79 131 0
-7 -79 -131 0
8 79 137 0
-8 -79 -137 0
9 79 143 0
-9 -79 -143 0
1 80 96 0
-1 -80 -96 0
2 80 102 0
-2 -80 -102 0
3 80 108 0
-3 -80 -108 0
4 80 114 0
-4 -80 -114 0
5 80 120 0
-5 -80 -120 0
6 80 126 0
-6 -80 -126 0
7 80 132 0
-7 -80 -132 0
8 80 138 0
-8 -80 -138 0
9 80 144 0
-9 -80 -144 0
1 81 97 0
-1 -81 -97 0
2 81 103 0
-2 -81 -103 0
3 81 109 0
-3 -81 -109 0
4 81 115 0
-4 -81 -115 0
5 81 121 0
-5 -81 -121 0
6 81 127 0
-6 -81 -127 0
7 81 133 0
-7 -81 -133 0
8 81 139 0
-8 -81 -139 0
9 81 145 0
-9 -81 -145 0
1 82 98 0
-1 -82 -98 0
2 82 104 0
-2 -82 -104 0
3 82 110 0
-3 -82 -110 0
4 82 116 0
-4 -82 -116 0
5 82 122 0
-5 -82 -122 0
6 82 128 0
-6 -82 -128 0
7 82 134 0
-7 -82 -134 0
8 82 140 0
-8 -82 -140 0
1 83 99 0
-1 -83 -99 0
2 83 105 0
-2 -83 -105 0
3 83 111 0
-3 -83 -111 0
4 83 117 0
-4 -83 -117 0
5 83 123 0
-5 -83 -123 0
6 83 129 0
-6 -83 -129 0
7 83 135 0
-7 -83 -135 0
8 83 141 0
-8 -83 -141 0
1 84 100 0
-1 -84 -100 0
2 84 106 0
-2 -84 -106 0
3 84 112 0
-3 -84 -112 0
4 84 118 0
-4 -84 -118 0
5 84 124 0
-5 -84 -124 0
6 84 130 0
-6 -84 -130 0
7 84 136 0
-7 -84 -136 0
8 84 142 0
-8 -84 -142 0
1 85 101 0
-1 -85 -101 0
2 85 107 0
-2 -85 -107 0
3 85 113 0
-3 -85 -113 0
4 85 119 0
-4 -85 -119 0
5 85 125 0
-5 -85 -125 0
6 85 131 0
-6 -85 -131 0
7 85 137 0
-7 -85 -137 0
8 85 143 0
-8 -85 -143 0
1 86 102 0
-1 -86 -102 0
2 86 108 0
-2 -86 -108 0
3 86 114 0
-3 -86 -114 0
4 86 120 0
-4 -86 -120 0
5 86 126 0
-5 -86 -126 0
6 86 132 0
-6 -86 -132 0
7 86 138 0
-7 -86 -138 0
8 86 144 0
-8 -86 -144 0
1 87 103 0
-1 -87 -103 0
2 87 109 0
-2 -87 -109 0
3 87 115 0
-3 -87 -115 0
4 87 121 0
-4 -87 -121 0
5 87 127 0
-5 -87 -127 0
6 87 133 0
-6 -87 -133 0
7 87 139 0
-7 -87 -139 0
8 87 145 0
-8 -87 -145 0
1 88 104 0
-1 -88 -104 0
2 88 110 0
-2 -88 -110 0
3 88 116 0
-3 -88 -116 0
4 88 122 0
-4 -88 -122 0
5 88 128 0
-5 -88 -128 0
6 88 134 0
-6 -88 -134 0
7 88 140 0
-7 -88 -140 0
1 89 105 0
-1 -89 -105 0
2 89 111 0
-2 -89 -111 0
3 89 117 0
-3 -89 -117 0
4 89 123 0
-4 -89 -123 0
5 89 129 0
-5 -89 -129 0
6 89 135 0
-6 -89 -135 0
7 89 141 0
-7 -89 -141 0
1 90 106 0
-1 -90 -106 0
2 90 112 0
-2 -90 -112 0
3 90 118 0
-3 -90 -118 0
4 90 124 0
-4 -90 -124 0
5 90 130 0
-5 -90 -130 0
6 90 136 0
-6 -90 -136 0
7 90 142 0
-7 -90 -142 0
1 91 107 0
-1 -91 -107 0
2 91 113 0
-2 -91 -113 0
3 91 119 0
-3 -91 -119 0
4 91 125 0
-4 -91 -125 0
5 91 131 0
-5 -91 -131 0
6 91 137 0
-6 -91 -137 0
7 91 143 0
-7 -91 -143 0
1 92 108 0
-1 -92 -108 0
2 92 114 0
-2 -92 -114 0
3 92 120 0
-3 -92 -120 0
4 92 126 0
-4 -92 -126 0
5 92 132 0
-5 -92 -132 0
6 92 138 0
-6 -92 -138 0
7 92 144 0
-7 -92 -144 0
1 93 109 0
-1 -93 -109 0
2 93 115 0
-2 -93 -115 0
3 93 121 0
-3 -93 -121 0
4 93 127 0
-4 -93 -127 0
5 93 133 0
-5 -93 -133 0
6 93 139 0
-6 -93 -139 0
7 93 145 0
-7 -93 -145 0
1 94 110 0
-1 -94 -110 0
2 94 116 0
-2 -94 -116 0
3 94 122 0
-3 -94 -122 0
4 94 128 0
-4 -94 -128 0
5 94 134 0
-5 -94 -134 0
6 94 140 0
-6 -94 -140 0
1 95 111 0
-1 -95 -111 0
2 95 117 0
-2 -95 -117 0
3 95 123 0
-3 -95 -123 0
4 95 129 0
-4 -95 -129 0
5 95 135 0
-5 -95 -135 0
6 95 141 0
-6 -95 -141 0
1 96 112 0
-1 -96 -112 0
2 96 118 0
-2 -96 -118 0
3 96 124 0
-3 -96 -124 0
4 96 130 0
-4 -96 -130 0
5 96 136 0
-5 -96 -136 0
6 96 142 0
-6 -96 -142 0
1 97 113 0
-1 -97 -113 0
2 97 119 0
-2 -97 -119 0
3 97 125 0
-3 -97 -125 0
4 97 131 0
-4 -97 -131 0
5 97 137 0
-5 -97 -137 0
6 97 143 0
-6 -97 -143 0
1 98 114 0
-1 -98 -114 0
2 98 120 0
-2 -98 -120 0
3 98 126 0
-3 -98 -126 0
4 98 132 0
-4 -98 -132 0
5 98 138 0
-5 -98 -138 0
6 98 144 0
-6 -98 -144 0
1 99 115 0
-1 -99 -115 0
2 99 121 0
-2 -99 -121 0
3 99 127 0
-3 -99 -127 0
4 99 133 0
-4 -99 -133 0
5 99 139 0
-5 -99 -139 0
6 99 145 0
-6 -99 -145 0
1 100 116 0
-1 -100 -116 0
2 100 122 0
-2 -100 -122 0
3 100 128 0
-3 -100 -128 0
4 100 134 0
-4 -100 -134 0
5 100 140 0
-5 -100 -140 0
1 101 117 0
-1 -101 -117 0
2 101 123 0
-2 -101 -123 0
3 101 129 0
-3 -101 -129 0
4 101 135 0
-4 -101 -135 0
5 101 141 0
-5 -101 -141 0
1 102 118 0
-1 -102 -118 0
2 102 124 0
-2 -102 -124 0
3 102 130 0
-3 -102 -130 0
4 102 136 0
-4 -102 -136 0
5 102 142 0
-5 -102 -142 0
1 103 119 0
-1 -103 -119 0
2 103 125 0
-2 -103 -125 0
3 103 131 0
-3 -103 -131 0
4 103 137 0
-4 -103 -137 0
5 103 143 0
-5 -103 -143 0
1 104 120 0
-1 -104 -120 0
2 104 126 0
-2 -104 -126 0
3 104 132 0
-3 -104 -132 0
4 104 138 0
-4 -104 -138 0
5 104 144 0
-5 -104 -144 0
1 105 121 0
-1 -105 -121 0
2 105 127 0
-2 -105 -127 0
3 105 133 0
-3 -105 -133 0
4 105 139 0
-4 -105 -139 0
5 105 145 0
-5 -105 -145 0
1 106 122 0
-1 -106 -122 0
2 106 128 0
-2 -106 -128 0
3 106 134 0
-3 -106 -134 0
4 106 140 0
-4 -106 -140 0
1 107 123 0
-1 -107 -123 0
2 107 129 0
-2 -107 -129 0
3 107 135 0
-3 -107 -135 0
4 107 141 0
-4 -107 -141 0
1 108 124 0
-1 -108 -124 0
2 108 130 0
-2 -108 -130 0
3 108 136 0
-3 -108 -136 0
4 108 142 0
-4 -108 -142 0
1 109 125 0
-1 -109 -125 0
2 109 131 0
-2 -109 -131 0
3 109 137 0
-3 -109 -137 0
4 109 143 0
-4 -109 -143 0
1 110 126 0
-1 -110 -126 0
2 110 132 0
-2 -110 -132 0
3 110 138 0
-3 -110 -138 0
4 110 144 0
-4 -110 -144 0
1 111 127 0
-1 -111 -127 0
2 111 133 0
-2 -111 -133 0
3 111 139 0
-3 -111 -139 0
4 111 145 0
-4 -111 -145 0
1 112 128 0
-1 -112 -128 0
2 112 134 0
-2 -112 -134 0
3 112 140 0
-3 -112 -140 0
1 113 129 0
-1 -113 -129 0
2 113 135 0
-2 -113 -135 0
3 113 141 0
-3 -113 -141 0
1 114 130 0
-1 -114 -130 0
2 114 136 0
-2 -114 -136 0
3 114 142 0
-3 -114 -142 0
1 115 131 0
-1 -115 -131 0
2 115 137 0
-2 -115 -137 0
3 115 143 0
-3 -115 -143 0
1 116 132 0
-1 -116 -132 0
2 116 138 0
-2 -116 -138 0
3 116 144 0
-3 -116 -144 0
1 117 133 0
-1 -117 -133 0
2 117 139 0
-2 -117 -139 0
3 117 145 0
-3 -117 -145 0
1 118 134 0
-1 -118 -134 0
2 118 140 0
-2 -118 -140 0
1 119 135 0
-1 -119 -135 0
2 119 141 0
-2 -119 -141 0
1 120 136 0
-1 -120 -136 0
2 120 142 0
-2 -120 -142 0
1 121 137 0
-1 -121 -137 0
2 121 143 0
-2 -121 -143 0
1 122 138 0
-1 -122 -138 0
2 122 144 0
-2 -122 -144 0
1 123 139 0
-1 -123 -139 0
2 123 145 0
-2 -123 -145 0
1 124 140 0
-1 -124 -140 0
1 125 141 0
-1 -125 -141 0
1 126 142 0
-1 -126 -142 0
1 127 143 0
-1 -127 -143 0
1 128 144 0
-1 -128 -144 0
1 129 145 0
-1 -129 -145 0
