certificates/rado_a6_c-10_N145.drat
-129 -145 0
-143 -145 0
-16 -145 0
-145 0
1 0
-17 0
129 0
33 0
-113 0
-49 0
9 0
-65 0
-25 0
-73 0
-97 0
5 0
13 0
137 0
-41 0
-21 0
-3 0
-45 0
-19 0
-89 0
-69 0
-93 0
-29 0
-53 0
-77 0
-101 0
-121 0
0
